
<<< setup


<<< generate

Version identifier: 22.1.1.0 | 2022-11-27 | 9160aff4d
Tried aggregator 2 times.
MIQCP Presolve eliminated 8 rows and 2 columns.
MIQCP Presolve modified 52 coefficients.
Aggregator did 2 substitutions.
Reduced MIQCP has 74 rows, 108 columns, and 378 nonzeros.
Reduced MIQCP has 17 binaries, 0 generals, 0 SOSs, and 0 indicators.
Reduced MIQCP has 10 quadratic constraints.
Presolve time = 0,00 sec. (0,88 ticks)
Probing fixed 0 vars, tightened 6 bounds.
Probing time = 0,00 sec. (0,12 ticks)
Clique table members: 7.
MIP emphasis: balance optimality and feasibility.
MIP search method: dynamic search.
Parallel mode: deterministic, using up to 12 threads.
Root relaxation solution time = 0,00 sec. (0,12 ticks)

        Nodes                                         Cuts/
   Node  Left     Objective  IInf  Best Integer    Best Bound    ItCnt     Gap

      0     0       29,5889     0                     95,6346        0         
      0     0       29,5661     0                     Cone: 2        1         
      0     0       29,5037     1                     Cone: 4        3         
      0     0       29,5030     4                     Cone: 6        5         
      0     0       29,5022     7                     Cone: 8        6         
      0     0       29,3550     7                     Cone: 9       10         
      0     0       29,3317     3                    Cone: 10       14         
      0     0       25,4557     5                    Cone: 43      102         
      0     0       25,4553    10                    Cone: 65      119         
      0     0       25,4551    17                    Cone: 85      144         
      0     0       25,4550    17                   Cone: 105      161         
      0     0       25,4550    17                   Cone: 123      176         
      0     0       25,4549    17                   Cone: 138      188         
      0     0       25,4549    17                   Cone: 149      198         
      0     0       25,4549    17                   Cone: 161      207         
      0     0       25,4549    17                   Cone: 167      212         
      0     0       25,4549    17                   Cone: 168      213         
      0     0       25,4549    17                   Cone: 170      216         
      0     0       25,4549    17                   Cone: 172      217         
      0     0       25,4549    17                   Cone: 173      218         
      0     0       25,4549    17                     25,4549      218         
*     0+    0                            8,0900       25,4549           214,65%
      0     0       21,3044    14        8,0900      Cuts: 42      302  163,34%
      0     0       19,1356    16        8,0900      Cuts: 17      313  136,53%
      0     0       18,3235    15        8,0900      Cuts: 24      338  126,50%
      0     0       18,1116    17        8,0900      Cuts: 19      346  123,88%
      0     0       17,5937    16        8,0900      Cuts: 21      370  117,47%
      0     0       17,2225    17        8,0900      Cuts: 14      383  112,89%
      0     0       16,4593    15        8,0900      Cuts: 17      405  103,45%
      0     0       16,1473    14        8,0900      Cuts: 19      414   99,60%
      0     0       15,8771    15        8,0900      Cuts: 18      422   96,26%
      0     0       15,6060    12        8,0900      Cuts: 13      434   92,90%
      0     0       15,4389    16        8,0900      Cuts: 15      443   90,84%
      0     0       15,3323    15        8,0900       Cuts: 8      448   89,52%
      0     0       15,0049    15        8,0900      Cuts: 20      463   85,47%
      0     0       14,9036    16        8,0900      Cuts: 21      470   84,22%
      0     0       14,1302    13        8,0900      Cuts: 18      486   74,66%
      0     0       13,7638    12        8,0900  LiftProj: 13      500   70,13%
      0     0       13,6115    14        8,0900      Cuts: 22      515   68,25%
*     0+    0                            9,1200       13,6115            49,25%
      0     0       13,3414    15        9,1200      Cuts: 18      533   46,29%
      0     0       13,1853    16        9,1200      Cuts: 15      543   44,58%
      0     0       13,0666    14        9,1200      Cuts: 19      552   43,27%
      0     0       12,9293    15        9,1200      Cuts: 14      562   41,77%
      0     0       12,8437    15        9,1200      Cuts: 21      575   40,83%
      0     0       12,7066    16        9,1200      Cuts: 13      590   39,33%
      0     0       12,6390    15        9,1200      Cuts: 30      598   38,59%
      0     0       12,6186    16        9,1200      Cuts: 10      603   38,36%
      0     0       12,5443    16        9,1200      Cuts: 19      613   37,55%
      0     0       12,2928    16        9,1200      Cuts: 24      626   34,79%
      0     0       12,2378    16        9,1200      Cuts: 16      630   34,19%
      0     0       11,9786    16        9,1200  LiftProj: 17      647   31,34%
      0     0       11,9073    15        9,1200  LiftProj: 14      658   30,56%
      0     0       11,8788    16        9,1200      Cuts: 11      663   30,25%
      0     0       11,7790    15        9,1200  LiftProj: 14      674   29,16%
      0     0       11,7367    16        9,1200       Cuts: 4      681   28,69%
      0     0       11,7165    15        9,1200      Cuts: 15      687   28,47%
      0     0       11,7059    16        9,1200      Cuts: 15      690   28,35%
      0     0       11,7009    17        9,1200   LiftProj: 5      692   28,30%
      0     0       11,6953    17        9,1200   LiftProj: 5      697   28,24%
      0     0       11,6719    17        9,1200      Cuts: 13      704   27,98%
      0     0       11,6165    17        9,1200   LiftProj: 8      712   27,37%
      0     0       11,5981    17        9,1200  LiftProj: 21      723   27,17%
      0     0       11,5940    17        9,1200   LiftProj: 7      727   27,13%
      0     0       11,5939    17        9,1200  LiftProj: 11      728   27,13%
*     0+    0                            9,1200       11,5939            27,13%
      0     2       11,5939    17        9,1200       11,5939      728   27,13%
Elapsed time = 1,28 sec. (723,19 ticks, tree = 0,02 MB, solutions = 2)

Flow cuts applied:  2
Mixed integer rounding cuts applied:  1
Lift and project cuts applied:  53
Gomory fractional cuts applied:  1
Cone linearizations applied:  64

Root node processing (before b&c):
  Real time             =    1,27 sec. (723,06 ticks)
Parallel b&c, 12 threads:
  Real time             =    0,14 sec. (5,76 ticks)
  Sync time (average)   =    0,11 sec.
  Wait time (average)   =    0,00 sec.
                          ------------
Total (root+branch&cut) =    1,41 sec. (728,82 ticks)

<<< solve


OBJECTIVE: 9.12

<<< post process


<<< done

